1349691
71, 99, 105, 76, 50, 18, 88, 7, 65, 60, 12, 36, 8, 28, 68, 40, 55, 78, 33, 108, 106, 42, 19, 73, 62, 87, 93, 96, 13, 21, 48, 80, 17, 53, 100, 58, 102, 54, 104, 97, 89, 91, 11, 49, 10, 64, 23, 22, 15, 74, 79, 67, 4, 92, 56, 103, 6, 30, 61, 85, 43, 95, 32, 44, 63, 20, 83, 3, 25, 107, 16, 94, 81, 2, 84, 51, 59, 46, 29, 34, 52, 1, 5, 35, 98, 101, 82, 45, 24, 90, 109, 77, 9, 66, 26, 37, 38, 41, 72, 57, 75, 86, 27, 69, 70, 14, 31, 39, 47
